0 2 3 6 2 8 9 1 8 8
5 0 7 5 9 4 5 5 2 4
2 3 0 7 2 10 6 1 1 2
1 2 3 0 5 2 8 5 8 3
3 6 3 7 0 2 9 9 6 5
9 9 5 6 7 0 9 8 5 9
8 2 6 2 6 6 0 4 7 2
5 3 2 6 2 2 10 0 5 1
2 5 5 6 4 5 5 10 0 2
5 10 5 9 7 8 6 4 2 0
